benchmarks_vrp/CMT2/min_c/CMT2_5.vrp
NAME: CMT2_5
TYPE: CVRP
COMMENT: 835.26 - Cluster Nr.5
DIMENSION: 4
CAPACITY: 140
EDGE_WEIGHT_TYPE: EUC_2D
NODE_COORD_TYPE: TWOD_COORDS
NODE_COORD_SECTION: 
3 10 70
2 17 64
4 31 76
1 40 40
DEPOT_SECTION: 
1
-1
DEMAND_SECTION: 
3 7
4 25
2 14
1 0
EOF
