benchmarks_vrp/CMT2/min_c/CMT2_5.tour
NAME: CMT2_5 solution
TYPE: TOUR
TOUR_SECTION:
1 2 3 4 -1
-1
EOF